
===== New CPLEX run =====
Instance: /home/yorig/tuner/mpils-tests/instances/miplib/medium-1/neos-1456979.mps
Config: /scratch/yorig/mpils-results-grid-seconds-10-no-mip-start/medium-1/2proc/seed-2/8_neos-1456979_seed-2_20260503_050646/expansion/config_param_CPXPARAM_MIP_Strategy_SubAlgorithm_1_iter_4.prm
========================

Selected objective sense:  MINIMIZE
Selected objective  name:  R6771
Selected RHS        name:  B
Selected bound      name:  BOUND
Version identifier: 22.1.2.0 | 2024-11-26 | 0edbb82fd
CPXPARAM_Threads                                 8
CPXPARAM_Parallel                                1
CPXPARAM_MIP_Cuts_Cliques                        -1
CPXPARAM_MIP_Strategy_StartAlgorithm             6
CPXPARAM_MIP_Strategy_SubAlgorithm               1
CPXPARAM_MIP_Cuts_FlowCovers                     1
CPXPARAM_MIP_Cuts_Implied                        -1
CPXPARAM_MIP_Limits_GomoryCand                   150
CPXPARAM_MIP_Cuts_MIRCut                         -1
CPXPARAM_MIP_Cuts_Disjunctive                    1
CPXPARAM_MIP_Strategy_BBInterval                 2
CPXPARAM_TimeLimit                               10
Tried aggregator 1 time.
MIP Presolve eliminated 175 rows and 10 columns.
MIP Presolve modified 4950 coefficients.
Reduced MIP has 6595 rows, 4595 columns, and 35740 nonzeros.
Reduced MIP has 4245 binaries, 175 generals, 0 SOSs, and 0 indicators.
Presolve time = 0.01 sec. (15.92 ticks)
Probing time = 0.01 sec. (5.74 ticks)
Tried aggregator 1 time.
Detecting symmetries...
MIP Presolve modified 90 coefficients.
Reduced MIP has 6595 rows, 4595 columns, and 35740 nonzeros.
Reduced MIP has 4245 binaries, 175 generals, 0 SOSs, and 0 indicators.
Presolve time = 0.02 sec. (27.10 ticks)
Probing time = 0.17 sec. (5.37 ticks)
Clique table members: 20433.
MIP emphasis: balance optimality and feasibility.
MIP search method: dynamic search.
Parallel mode: deterministic, using up to 8 threads.
Root relaxation solution time = 0.03 sec. (38.71 ticks)

        Nodes                                         Cuts/
   Node  Left     Objective  IInf  Best Integer    Best Bound    ItCnt     Gap

      0     0      154.0000   120                    154.0000      736         
      0     0      154.0000   112                    Cuts: 71     1643         
      0     0      154.0000   111                    Cuts: 99     3419         
      0     0      154.0000    84                    Cuts: 40     4397         
      0     0      154.0000   126                    Cuts: 47     5761         
*     0+    0                          216.0000      154.0000            28.70%
*     0+    0                          214.0000      154.0000            28.04%
      0     0  -1.00000e+75     0      214.0000      154.0000     5761   28.04%
      0     2      154.0000    97      214.0000      154.0000     5761   28.04%
Elapsed time = 5.81 sec. (5802.84 ticks, tree = 0.02 MB, solutions = 2)
      3     5      155.1111   114      214.0000      154.0000     8357   28.04%
     23    14      164.6977    65      214.0000      157.0000    17209   26.64%
*    28+    6                          212.0000      157.0000            25.94%
     49    40      163.3560   101      212.0000      157.0000    34025   25.94%
     80     7      158.1968   105      212.0000      157.0000     9486   25.94%
    127    83      166.8756   114      212.0000      157.0000    60885   25.94%
    145   107      171.6122    54      212.0000      157.0000    73954   25.94%
    173   140      184.6107    71      212.0000      157.0000   101945   25.94%
    195   161      172.3061    77      212.0000      157.0000   123845   25.94%
    220   190      172.7653   113      212.0000      157.0000   135499   25.94%
    459   336      165.0000    96      212.0000      157.0000   190922   25.94%
Elapsed time = 9.41 sec. (9012.80 ticks, tree = 0.80 MB, solutions = 3)

Cover cuts applied:  10
Flow cuts applied:  105
Zero-half cuts applied:  32
Lift and project cuts applied:  1
Gomory fractional cuts applied:  16
Disjunctive cuts applied:  0
Cone linearizations applied:  0

Root node processing (before b&c):
  Real time             =    5.66 sec. (5741.34 ticks)
Parallel b&c, 8 threads:
  Real time             =    4.34 sec. (4050.23 ticks)
  Sync time (average)   =    1.51 sec.
  Wait time (average)   =    0.00 sec.
                          ------------
Total (root+branch&cut) =   10.00 sec. (9791.57 ticks)
Gap: 25.47%
Upper bound: 212
Lower bound: 158
End of CPLEX run. Time: 10.0048 seconds

===== New CPLEX run =====
Instance: /home/yorig/tuner/mpils-tests/instances/miplib/medium-1/neos-1456979.mps
Config: /scratch/yorig/mpils-results-grid-seconds-10-no-mip-start/medium-1/2proc/seed-2/8_neos-1456979_seed-2_20260503_050646/expansion/config_param_CPXPARAM_MIP_Strategy_SubAlgorithm_2_iter_4.prm
========================

Selected objective sense:  MINIMIZE
Selected objective  name:  R6771
Selected RHS        name:  B
Selected bound      name:  BOUND
Version identifier: 22.1.2.0 | 2024-11-26 | 0edbb82fd
CPXPARAM_Threads                                 8
CPXPARAM_Parallel                                1
CPXPARAM_MIP_Cuts_Cliques                        -1
CPXPARAM_MIP_Strategy_StartAlgorithm             6
CPXPARAM_MIP_Strategy_SubAlgorithm               2
CPXPARAM_MIP_Cuts_FlowCovers                     1
CPXPARAM_MIP_Cuts_Implied                        -1
CPXPARAM_MIP_Limits_GomoryCand                   150
CPXPARAM_MIP_Cuts_MIRCut                         -1
CPXPARAM_MIP_Cuts_Disjunctive                    1
CPXPARAM_MIP_Strategy_BBInterval                 2
CPXPARAM_TimeLimit                               10
Tried aggregator 1 time.
MIP Presolve eliminated 175 rows and 10 columns.
MIP Presolve modified 4950 coefficients.
Reduced MIP has 6595 rows, 4595 columns, and 35740 nonzeros.
Reduced MIP has 4245 binaries, 175 generals, 0 SOSs, and 0 indicators.
Presolve time = 0.01 sec. (15.92 ticks)
Probing time = 0.01 sec. (5.74 ticks)
Tried aggregator 1 time.
Detecting symmetries...
MIP Presolve modified 90 coefficients.
Reduced MIP has 6595 rows, 4595 columns, and 35740 nonzeros.
Reduced MIP has 4245 binaries, 175 generals, 0 SOSs, and 0 indicators.
Presolve time = 0.02 sec. (27.10 ticks)
Probing time = 0.12 sec. (5.37 ticks)
Clique table members: 20433.
MIP emphasis: balance optimality and feasibility.
MIP search method: dynamic search.
Parallel mode: deterministic, using up to 8 threads.
Root relaxation solution time = 0.03 sec. (38.64 ticks)

        Nodes                                         Cuts/
   Node  Left     Objective  IInf  Best Integer    Best Bound    ItCnt     Gap

      0     0      154.0000   120                    154.0000      736         
      0     0      154.0000   110                    Cuts: 71      883         
      0     0      154.0000   137                   Cuts: 158     1230         
      0     0      154.0000   130                    Cuts: 21     1472         
      0     0      154.0000   148                    Cuts: 86     1623         
*     0+    0                          216.0000      154.0000            28.70%
      0     2      154.0000    78      216.0000      154.0000     1623   28.70%
Elapsed time = 2.17 sec. (1487.88 ticks, tree = 0.02 MB, solutions = 1)
     53    50      162.3583   127      216.0000      154.3061     4747   28.56%
    188   151      190.3371   104      216.0000      154.3061    11549   28.56%
    330   274      170.6771    55      216.0000      154.3061    19859   28.56%
    517   342      194.5000    43      216.0000      154.3061    23232   28.56%
*   527   348      integral     0      200.0000      154.3061    23609   22.85%
    732   487      183.5000    54      200.0000      156.0949    31892   21.95%
    930   643      158.9621   159      200.0000      156.3829    39409   21.81%
   1075   750      183.0000    98      200.0000      157.3488    44653   21.33%
   1328  1050      190.2390   106      200.0000      158.0000    57071   21.00%
   1552  1210      177.5769   133      200.0000      158.0000    62905   21.00%
*  1658+ 1306                          186.0000      158.0000            15.05%

Performing restart 1

Repeating presolve.
Tried aggregator 1 time.
MIP Presolve eliminated 41 rows and 35 columns.
MIP Presolve modified 4683 coefficients.
Reduced MIP has 6554 rows, 4560 columns, and 34073 nonzeros.
Reduced MIP has 4210 binaries, 175 generals, 0 SOSs, and 0 indicators.
Presolve time = 0.02 sec. (33.84 ticks)
Tried aggregator 1 time.
Reduced MIP has 6554 rows, 4560 columns, and 34073 nonzeros.
Reduced MIP has 4210 binaries, 175 generals, 0 SOSs, and 0 indicators.
Presolve time = 0.02 sec. (24.99 ticks)
Represolve time = 0.24 sec. (103.47 ticks)
   1659     0      154.0000   101      186.0000      Cuts: 40    72350   15.05%
   1659     0      154.4211   168      186.0000      Cuts: 65    72591   15.05%
   1659     0      156.6667   147      186.0000      Cuts: 64    72709   15.05%
   1659     0      158.7500   160      186.0000      Cuts: 61    72869   14.65%
   1659     0      159.7500   156      186.0000      Cuts: 65    72983   14.11%
   1659     0      160.5753   174      186.0000      Cuts: 46    73409   13.67%
   1659     0      161.9738   213      186.0000      Cuts: 92    73572   12.92%
   1659     0      163.1531   254      186.0000      Cuts: 71    73918   12.28%
   1659     0      163.9000   236      186.0000     Cuts: 115    74149   11.88%
   1659     0      165.4991   201      186.0000      Cuts: 55    74406   11.02%
   1659     0      166.0526   185      186.0000      Cuts: 59    74511   10.72%
   1659     0      166.5678   181      186.0000      Cuts: 25    74603   10.45%
   1659     0      166.5678   189      186.0000      Cuts: 12    74636   10.45%
   1659     0      166.5678   131      186.0000       Cuts: 5    74640   10.45%
   1659     0      166.6481   205      186.0000      Cuts: 44    74832   10.37%
   1659     0      167.0780   247      186.0000      Cuts: 46    75022   10.17%
   1659     0      167.6053   193      186.0000      Cuts: 43    75151    9.89%
   1659     0      168.3838   216      186.0000      Cuts: 87    75343    9.47%
   1659     0      168.3838   196      186.0000      Cuts: 41    75388    9.47%
   1659     0      168.3838   217      186.0000      Cuts: 15    75414    9.47%
   1659     0      168.4130   241      186.0000      Cuts: 49    75489    9.46%
   1659     0      168.4709   283      186.0000      Cuts: 38    75545    9.42%
   1659     0      168.6026   259      186.0000      Cuts: 32    75674    9.35%
   1659     0      168.6100   259      186.0000      Cuts: 31    75749    9.35%
   1659     0      169.4000   297      186.0000      Cuts: 31    76038    8.92%
   1659     0      169.5000   264      186.0000      Cuts: 57    76260    8.87%
   1659     0      169.5000   186      186.0000      Cuts: 52    76444    8.87%
   1659     0      169.5000   263      186.0000      Cuts: 26    76514    8.87%

GUB cover cuts applied:  2
Flow cuts applied:  99
Zero-half cuts applied:  125
Lift and project cuts applied:  1
Gomory fractional cuts applied:  72
Disjunctive cuts applied:  0
Cone linearizations applied:  0

Root node processing (before b&c):
  Real time             =    2.13 sec. (1485.42 ticks)
Parallel b&c, 8 threads:
  Real time             =    7.88 sec. (8553.70 ticks)
  Sync time (average)   =    1.26 sec.
  Wait time (average)   =    0.00 sec.
                          ------------
Total (root+branch&cut) =   10.01 sec. (10039.12 ticks)
Gap: 8.87%
Upper bound: 186
Lower bound: 169.5
End of CPLEX run. Time: 10.0113 seconds

===== New CPLEX run =====
Instance: /home/yorig/tuner/mpils-tests/instances/miplib/medium-1/neos-1456979.mps
Config: /scratch/yorig/mpils-results-grid-seconds-10-no-mip-start/medium-1/2proc/seed-2/8_neos-1456979_seed-2_20260503_050646/expansion/config_param_CPXPARAM_MIP_Strategy_SubAlgorithm_3_iter_4.prm
========================

Selected objective sense:  MINIMIZE
Selected objective  name:  R6771
Selected RHS        name:  B
Selected bound      name:  BOUND
Version identifier: 22.1.2.0 | 2024-11-26 | 0edbb82fd
CPXPARAM_Threads                                 8
CPXPARAM_Parallel                                1
CPXPARAM_MIP_Cuts_Cliques                        -1
CPXPARAM_MIP_Strategy_StartAlgorithm             6
CPXPARAM_MIP_Strategy_SubAlgorithm               3
CPXPARAM_MIP_Cuts_FlowCovers                     1
CPXPARAM_MIP_Cuts_Implied                        -1
CPXPARAM_MIP_Limits_GomoryCand                   150
CPXPARAM_MIP_Cuts_MIRCut                         -1
CPXPARAM_MIP_Cuts_Disjunctive                    1
CPXPARAM_MIP_Strategy_BBInterval                 2
CPXPARAM_TimeLimit                               10
Tried aggregator 1 time.
MIP Presolve eliminated 175 rows and 10 columns.
MIP Presolve modified 4950 coefficients.
Reduced MIP has 6595 rows, 4595 columns, and 35740 nonzeros.
Reduced MIP has 4245 binaries, 175 generals, 0 SOSs, and 0 indicators.
Presolve time = 0.01 sec. (15.92 ticks)
Probing time = 0.01 sec. (5.74 ticks)
Tried aggregator 1 time.
Detecting symmetries...
MIP Presolve modified 90 coefficients.
Reduced MIP has 6595 rows, 4595 columns, and 35740 nonzeros.
Reduced MIP has 4245 binaries, 175 generals, 0 SOSs, and 0 indicators.
Presolve time = 0.02 sec. (27.10 ticks)
Probing time = 0.12 sec. (5.37 ticks)
Clique table members: 20433.
MIP emphasis: balance optimality and feasibility.
MIP search method: dynamic search.
Parallel mode: deterministic, using up to 8 threads.
Root relaxation solution time = 0.02 sec. (38.71 ticks)

        Nodes                                         Cuts/
   Node  Left     Objective  IInf  Best Integer    Best Bound    ItCnt     Gap

      0     0      154.0000   120                    154.0000      736         
      0     0      154.0000   124                    Cuts: 72     1522         
      0     0      154.0000   121                    Cuts: 59     2265         
      0     0      154.0000   154                   Cuts: 128     3157         
      0     2      154.0000   159                    154.0000     5197         
Elapsed time = 3.39 sec. (3011.85 ticks, tree = 0.02 MB, solutions = 0)
      7     9      157.0000   141                    155.8519    10957         
     36    20      161.1503   128                    155.8519    20247         
     58    47      165.6092    95                    155.8519    50402         
     82    73      169.4402   120                    155.8519    81187         
    111    90      171.5519   135                    155.8519   104026         
    140   120      166.3607   142                    155.8519   137737         
    167   147      184.4300    78                    155.8519   162630         
    212   164      169.9230    87                    155.8519   175951         
    239   205      180.5552    65                    155.8519   210717         
    431   349      206.6000    46                    155.8519   323078         
Elapsed time = 7.95 sec. (6226.73 ticks, tree = 0.58 MB, solutions = 0)
*   440   347      integral     0      207.0000      155.8519   324008   24.71%
    541   400      168.0236   109      207.0000      157.0000   417830   24.15%
    725   505      198.2036    70      207.0000      157.3938   504685   23.96%

Cover cuts applied:  12
Flow cuts applied:  139
Zero-half cuts applied:  44
Multi commodity flow cuts applied:  4
Lift and project cuts applied:  1
Gomory fractional cuts applied:  26
Disjunctive cuts applied:  0
Cone linearizations applied:  0

Root node processing (before b&c):
  Real time             =    3.34 sec. (2959.84 ticks)
Parallel b&c, 8 threads:
  Real time             =    6.66 sec. (5483.88 ticks)
  Sync time (average)   =    1.56 sec.
  Wait time (average)   =    0.00 sec.
                          ------------
Total (root+branch&cut) =   10.00 sec. (8443.72 ticks)
Gap: 23.87%
Upper bound: 207
Lower bound: 157.591
End of CPLEX run. Time: 10.0049 seconds

===== New CPLEX run =====
Instance: /home/yorig/tuner/mpils-tests/instances/miplib/medium-1/neos-1456979.mps
Config: /scratch/yorig/mpils-results-grid-seconds-10-no-mip-start/medium-1/2proc/seed-2/8_neos-1456979_seed-2_20260503_050646/expansion/config_param_CPXPARAM_MIP_Strategy_SubAlgorithm_4_iter_4.prm
========================

Selected objective sense:  MINIMIZE
Selected objective  name:  R6771
Selected RHS        name:  B
Selected bound      name:  BOUND
Version identifier: 22.1.2.0 | 2024-11-26 | 0edbb82fd
CPXPARAM_Threads                                 8
CPXPARAM_Parallel                                1
CPXPARAM_MIP_Cuts_Cliques                        -1
CPXPARAM_MIP_Strategy_StartAlgorithm             6
CPXPARAM_MIP_Strategy_SubAlgorithm               4
CPXPARAM_MIP_Cuts_FlowCovers                     1
CPXPARAM_MIP_Cuts_Implied                        -1
CPXPARAM_MIP_Limits_GomoryCand                   150
CPXPARAM_MIP_Cuts_MIRCut                         -1
CPXPARAM_MIP_Cuts_Disjunctive                    1
CPXPARAM_MIP_Strategy_BBInterval                 2
CPXPARAM_TimeLimit                               10
Tried aggregator 1 time.
MIP Presolve eliminated 175 rows and 10 columns.
MIP Presolve modified 4950 coefficients.
Reduced MIP has 6595 rows, 4595 columns, and 35740 nonzeros.
Reduced MIP has 4245 binaries, 175 generals, 0 SOSs, and 0 indicators.
Presolve time = 0.01 sec. (15.92 ticks)
Probing time = 0.01 sec. (5.74 ticks)
Tried aggregator 1 time.
Detecting symmetries...
MIP Presolve modified 90 coefficients.
Reduced MIP has 6595 rows, 4595 columns, and 35740 nonzeros.
Reduced MIP has 4245 binaries, 175 generals, 0 SOSs, and 0 indicators.
Presolve time = 0.02 sec. (27.10 ticks)
Probing time = 0.15 sec. (5.37 ticks)
Clique table members: 20433.
MIP emphasis: balance optimality and feasibility.
MIP search method: dynamic search.
Parallel mode: deterministic, using up to 8 threads.
Root relaxation solution time = 0.04 sec. (38.71 ticks)

        Nodes                                         Cuts/
   Node  Left     Objective  IInf  Best Integer    Best Bound    ItCnt     Gap

      0     0      154.0000   120                    154.0000      736         
      0     0      154.0000   121                    Cuts: 71      751         
      0     0      154.0000   120                    Cuts: 92      766         
      0     2      154.0000    54                    154.0000      766         
Elapsed time = 9.96 sec. (4192.96 ticks, tree = 0.02 MB, solutions = 0)
      1     3      155.1111   109                    154.0000      779         

Flow cuts applied:  63
Zero-half cuts applied:  3
Lift and project cuts applied:  1
Gomory fractional cuts applied:  11
Disjunctive cuts applied:  0
Cone linearizations applied:  0

Root node processing (before b&c):
  Real time             =    9.39 sec. (4153.51 ticks)
Parallel b&c, 8 threads:
  Real time             =    0.62 sec. (1913.39 ticks)
  Sync time (average)   =    0.43 sec.
  Wait time (average)   =    0.00 sec.
                          ------------
Total (root+branch&cut) =   10.01 sec. (6066.90 ticks)
Gap: unavailable
Lower bound: 154
End of CPLEX run. Time: 10.01 seconds
